NAME : portgen-19-16
COMMENT : portgen N=19, seed=16
TYPE : TSP
DIMENSION : 19
EDGE_WEIGHT_TYPE : EUC_2D
NODE_COORD_SECTION
1 381413 123204
2 215229 873526
3 204543 295123
4 561950 424603
5 801554 773301
6 682861 278344
7 241870 522409
8 939870 392656
9 561862 359081
10 616900 982902
11 815593 833922
12 640487 92921
13 791872 615309
14 143793 172157
15 223382 785616
16 665398 470350
17 258771 819396
18 11005 93519
19 709732 462660
